JOBS = 1..4;
MACHINES = 1..3;
SPEED = 4;
time = array3d(JOBS,MACHINES,1..SPEED,[37,11,8,6,86,25,18,15,206,61,44,37,118,35,25,21,49,14,10,8,37,11,8,6,257,76,55,46,157,47,33,28,29,8,6,5,230,68,49,41,62,18,13,11,174,52,37,31]);
energy = array3d(JOBS,MACHINES,1..SPEED,[69,89,92,94,42,77,83,86,12,54,64,69,30,70,77,81,61,86,90,92,69,89,92,94,7,46,57,63,20,62,71,75,74,92,94,95,10,50,61,66,53,83,87,89,17,59,69,73]);
precedence = array2d(JOBS,MACHINES,[2,0,1,1,0,2,0,2,1,0,1,2]);
ME = 1;
TE = 117;
st_old = array2d(JOBS,MACHINES,[249,49,135,131,0,249,6,239,82,82,135,197]);
SpeedScaling = array2d(JOBS,MACHINES,[1,1,2,1,1,1,2,2,1,3,1,2]);
